(set-info :smt-lib-version 2.6)
(set-logic QF_NIA)
(set-info :source |
Generated by: Cristina Borralleras, Daniel Larraz, Albert Oliveras, Enric Rodriguez-Carbonell, Albert Rubio
Generated on: 2017-04-27
Generator: VeryMax
Application: Termination proving
Target solver: barcelogic
|)
(set-info :license "https://creativecommons.org/licenses/by/4.0/")
(set-info :category "industrial")
(set-info :status sat)
(declare-fun Nl14arg11 () Int)
(declare-fun Nl14arg21 () Int)
(declare-fun Nl14arg31 () Int)
(declare-fun Nl14arg41 () Int)
(declare-fun Nl14arg51 () Int)
(declare-fun Nl14arg61 () Int)
(declare-fun Nl14arg71 () Int)
(declare-fun Nl14arg81 () Int)
(declare-fun Nl14arg91 () Int)
(declare-fun Nl14arg101 () Int)
(declare-fun Nl14arg111 () Int)
(declare-fun Nl14arg121 () Int)
(declare-fun Nl14arg131 () Int)
(declare-fun Nl14arg141 () Int)
(declare-fun Nl14arg151 () Int)
(declare-fun Nl14arg161 () Int)
(declare-fun Nl14arg171 () Int)
(declare-fun Nl14arg181 () Int)
(declare-fun Nl14arg191 () Int)
(declare-fun Nl14arg201 () Int)
(declare-fun Nl14arg211 () Int)
(declare-fun Nl14arg221 () Int)
(declare-fun Nl14arg231 () Int)
(declare-fun Nl14arg241 () Int)
(declare-fun Nl14arg251 () Int)
(declare-fun Nl14arg261 () Int)
(declare-fun Nl14arg271 () Int)
(declare-fun Nl14arg281 () Int)
(declare-fun Nl14arg291 () Int)
(declare-fun lam0n0 () Int)
(declare-fun lam0n1 () Int)
(declare-fun lam0n2 () Int)
(declare-fun lam0n3 () Int)
(declare-fun lam0n4 () Int)
(declare-fun lam0n5 () Int)
(declare-fun lam0n6 () Int)
(declare-fun lam0n7 () Int)
(declare-fun lam0n8 () Int)
(declare-fun lam0n9 () Int)
(declare-fun lam0n10 () Int)
(declare-fun lam0n11 () Int)
(declare-fun lam0n12 () Int)
(declare-fun lam0n13 () Int)
(declare-fun lam0n14 () Int)
(declare-fun lam0n15 () Int)
(declare-fun lam0n16 () Int)
(declare-fun lam0n17 () Int)
(declare-fun lam0n18 () Int)
(declare-fun lam0n19 () Int)
(declare-fun lam0n20 () Int)
(declare-fun lam0n21 () Int)
(declare-fun lam0n22 () Int)
(declare-fun lam0n23 () Int)
(declare-fun lam0n24 () Int)
(declare-fun lam0n25 () Int)
(declare-fun lam0n26 () Int)
(declare-fun lam0n27 () Int)
(declare-fun lam0n28 () Int)
(declare-fun lam0n29 () Int)
(declare-fun lam0n30 () Int)
(declare-fun lam0n32 () Int)
(declare-fun Nl14CT1 () Int)
(declare-fun lam0n31 () Int)
(declare-fun lam1n0 () Int)
(declare-fun lam1n1 () Int)
(declare-fun lam1n2 () Int)
(declare-fun lam1n3 () Int)
(declare-fun lam1n4 () Int)
(declare-fun lam1n5 () Int)
(declare-fun lam1n6 () Int)
(declare-fun lam1n7 () Int)
(declare-fun lam1n8 () Int)
(declare-fun lam1n9 () Int)
(declare-fun lam1n10 () Int)
(declare-fun lam1n11 () Int)
(declare-fun lam1n12 () Int)
(declare-fun lam1n13 () Int)
(declare-fun lam1n14 () Int)
(declare-fun lam1n15 () Int)
(declare-fun lam1n16 () Int)
(declare-fun lam1n17 () Int)
(declare-fun lam1n18 () Int)
(declare-fun lam1n19 () Int)
(declare-fun lam1n20 () Int)
(declare-fun lam1n21 () Int)
(declare-fun lam1n22 () Int)
(declare-fun lam1n23 () Int)
(declare-fun lam1n24 () Int)
(declare-fun lam1n25 () Int)
(declare-fun lam1n26 () Int)
(declare-fun lam1n27 () Int)
(declare-fun lam1n28 () Int)
(declare-fun lam1n29 () Int)
(declare-fun lam1n30 () Int)
(declare-fun lam1n32 () Int)
(declare-fun lam1n31 () Int)
(declare-fun lam2n0 () Int)
(declare-fun lam2n1 () Int)
(declare-fun lam2n2 () Int)
(declare-fun lam2n3 () Int)
(declare-fun lam2n4 () Int)
(declare-fun lam2n5 () Int)
(declare-fun lam2n6 () Int)
(declare-fun lam2n7 () Int)
(declare-fun lam2n8 () Int)
(declare-fun lam2n9 () Int)
(declare-fun lam2n10 () Int)
(declare-fun lam2n11 () Int)
(declare-fun lam2n12 () Int)
(declare-fun lam2n13 () Int)
(declare-fun lam2n14 () Int)
(declare-fun lam2n15 () Int)
(declare-fun lam2n16 () Int)
(declare-fun lam2n17 () Int)
(declare-fun lam2n18 () Int)
(declare-fun lam2n19 () Int)
(declare-fun lam2n20 () Int)
(declare-fun lam2n21 () Int)
(declare-fun lam2n22 () Int)
(declare-fun lam2n23 () Int)
(declare-fun lam2n24 () Int)
(declare-fun lam2n25 () Int)
(declare-fun lam2n26 () Int)
(declare-fun lam2n27 () Int)
(declare-fun lam2n28 () Int)
(declare-fun lam2n29 () Int)
(declare-fun lam2n30 () Int)
(declare-fun lam2n31 () Int)
(declare-fun lam2n32 () Int)
(declare-fun lam2n33 () Int)
(declare-fun lam2n34 () Int)
(declare-fun lam2n35 () Int)
(declare-fun lam2n36 () Int)
(declare-fun lam2n37 () Int)
(declare-fun lam2n38 () Int)
(declare-fun lam2n39 () Int)
(declare-fun lam2n40 () Int)
(declare-fun lam2n41 () Int)
(declare-fun lam2n42 () Int)
(declare-fun lam2n43 () Int)
(declare-fun lam2n44 () Int)
(declare-fun lam2n45 () Int)
(declare-fun undef59 () Int)
(declare-fun undef66 () Int)
(declare-fun undef148 () Int)
(declare-fun undef147 () Int)
(declare-fun undef157 () Int)
(declare-fun undef151 () Int)
(declare-fun undef156 () Int)
(declare-fun undef459 () Int)
(declare-fun undef65 () Int)
(declare-fun undef60 () Int)
(declare-fun undef61 () Int)
(declare-fun undef461 () Int)
(declare-fun undef88 () Int)
(declare-fun undef152 () Int)
(declare-fun undef176 () Int)
(declare-fun undef177 () Int)
(declare-fun undef488 () Int)
(declare-fun undef464 () Int)
(declare-fun undef490 () Int)
(declare-fun undef1362 () Int)
(declare-fun undef1363 () Int)
(declare-fun undef2009 () Int)
(declare-fun undef489 () Int)
(declare-fun undef1361 () Int)
(declare-fun undef2008 () Int)
(declare-fun undef63 () Int)
(declare-fun undef64 () Int)
(declare-fun undef154 () Int)
(declare-fun undef155 () Int)
(declare-fun undef158 () Int)
(declare-fun undef159 () Int)
(declare-fun undef470 () Int)
(declare-fun undef460 () Int)
(declare-fun undef1332 () Int)
(declare-fun undef1333 () Int)
(declare-fun undef469 () Int)
(declare-fun undef476 () Int)
(declare-fun undef477 () Int)
(declare-fun undef478 () Int)
(declare-fun undef479 () Int)
(declare-fun undef480 () Int)
(declare-fun undef481 () Int)
(declare-fun undef482 () Int)
(declare-fun undef483 () Int)
(declare-fun undef484 () Int)
(declare-fun undef485 () Int)
(declare-fun undef486 () Int)
(declare-fun undef487 () Int)
(declare-fun lam3n0 () Int)
(declare-fun lam3n1 () Int)
(declare-fun lam3n2 () Int)
(declare-fun lam3n3 () Int)
(declare-fun lam3n4 () Int)
(declare-fun lam3n5 () Int)
(declare-fun lam3n6 () Int)
(declare-fun lam3n7 () Int)
(declare-fun lam3n8 () Int)
(declare-fun lam3n9 () Int)
(declare-fun lam3n10 () Int)
(declare-fun lam3n11 () Int)
(declare-fun lam3n12 () Int)
(declare-fun lam3n13 () Int)
(declare-fun lam3n14 () Int)
(declare-fun lam3n15 () Int)
(declare-fun lam3n16 () Int)
(declare-fun lam3n17 () Int)
(declare-fun lam3n18 () Int)
(declare-fun lam3n19 () Int)
(declare-fun lam3n20 () Int)
(declare-fun lam3n21 () Int)
(declare-fun lam3n22 () Int)
(declare-fun lam4n0 () Int)
(declare-fun lam4n1 () Int)
(declare-fun lam4n2 () Int)
(declare-fun lam4n3 () Int)
(declare-fun lam4n4 () Int)
(declare-fun lam4n5 () Int)
(declare-fun lam4n6 () Int)
(declare-fun lam4n7 () Int)
(declare-fun lam4n8 () Int)
(declare-fun lam4n9 () Int)
(declare-fun lam4n10 () Int)
(declare-fun lam4n11 () Int)
(declare-fun lam4n12 () Int)
(declare-fun lam4n13 () Int)
(declare-fun lam4n14 () Int)
(declare-fun lam4n15 () Int)
(declare-fun lam4n16 () Int)
(declare-fun lam4n17 () Int)
(declare-fun lam4n18 () Int)
(declare-fun lam4n19 () Int)
(declare-fun lam4n20 () Int)
(declare-fun lam4n21 () Int)
(declare-fun lam4n22 () Int)
(assert ( and ( <= ( - 1 ) Nl14arg11 ) ( <= Nl14arg11 1 ) ( <= ( - 1 ) Nl14arg21 ) ( <= Nl14arg21 1 ) ( <= ( - 1 ) Nl14arg31 ) ( <= Nl14arg31 1 ) ( <= ( - 1 ) Nl14arg41 ) ( <= Nl14arg41 1 ) ( <= ( - 1 ) Nl14arg51 ) ( <= Nl14arg51 1 ) ( <= ( - 1 ) Nl14arg61 ) ( <= Nl14arg61 1 ) ( <= ( - 1 ) Nl14arg71 ) ( <= Nl14arg71 1 ) ( <= ( - 1 ) Nl14arg81 ) ( <= Nl14arg81 1 ) ( <= ( - 1 ) Nl14arg91 ) ( <= Nl14arg91 1 ) ( <= ( - 1 ) Nl14arg101 ) ( <= Nl14arg101 1 ) ( <= ( - 1 ) Nl14arg111 ) ( <= Nl14arg111 1 ) ( <= ( - 1 ) Nl14arg121 ) ( <= Nl14arg121 1 ) ( <= ( - 1 ) Nl14arg131 ) ( <= Nl14arg131 1 ) ( <= ( - 1 ) Nl14arg141 ) ( <= Nl14arg141 1 ) ( <= ( - 1 ) Nl14arg151 ) ( <= Nl14arg151 1 ) ( <= ( - 1 ) Nl14arg161 ) ( <= Nl14arg161 1 ) ( <= ( - 1 ) Nl14arg171 ) ( <= Nl14arg171 1 ) ( <= ( - 1 ) Nl14arg181 ) ( <= Nl14arg181 1 ) ( <= ( - 1 ) Nl14arg191 ) ( <= Nl14arg191 1 ) ( <= ( - 1 ) Nl14arg201 ) ( <= Nl14arg201 1 ) ( <= ( - 1 ) Nl14arg211 ) ( <= Nl14arg211 1 ) ( <= ( - 1 ) Nl14arg221 ) ( <= Nl14arg221 1 ) ( <= ( - 1 ) Nl14arg231 ) ( <= Nl14arg231 1 ) ( <= ( - 1 ) Nl14arg241 ) ( <= Nl14arg241 1 ) ( <= ( - 1 ) Nl14arg251 ) ( <= Nl14arg251 1 ) ( <= ( - 1 ) Nl14arg261 ) ( <= Nl14arg261 1 ) ( <= ( - 1 ) Nl14arg271 ) ( <= Nl14arg271 1 ) ( <= ( - 1 ) Nl14arg281 ) ( <= Nl14arg281 1 ) ( <= ( - 1 ) Nl14arg291 ) ( <= Nl14arg291 1 ) ))
(assert ( or ( and ( >= lam0n0 0 ) ( >= lam0n1 0 ) ( >= lam0n2 0 ) ( >= lam0n3 0 ) ( >= lam0n4 0 ) ( >= lam0n5 0 ) ( >= lam0n6 0 ) ( >= lam0n7 0 ) ( >= lam0n8 0 ) ( >= lam0n9 0 ) ( >= lam0n10 0 ) ( >= lam0n11 0 ) ( >= lam0n12 0 ) ( >= lam0n13 0 ) ( >= lam0n14 0 ) ( >= lam0n15 0 ) ( >= lam0n16 0 ) ( >= lam0n17 0 ) ( >= lam0n18 0 ) ( >= lam0n19 0 ) ( >= lam0n20 0 ) ( >= lam0n21 0 ) ( >= lam0n22 0 ) ( >= lam0n23 0 ) ( >= lam0n24 0 ) ( >= lam0n25 0 ) ( >= lam0n26 0 ) ( >= lam0n27 0 ) ( >= lam0n28 0 ) ( >= lam0n29 0 ) ( >= lam0n30 0 ) ( >= lam0n32 0 ) ( > ( + ( * 3 lam0n0 ) ( * 3 lam0n1 ) ( * 5 lam0n2 ) ( * 5 lam0n3 ) ( * 1 lam0n13 ) ( * 1 lam0n14 ) ( * 1 lam0n15 ) ( * 1 lam0n16 ) ( * 1 lam0n17 ) ( * 1 lam0n18 ) ( * 1 lam0n19 ) ( * 7 lam0n20 ) ( * 7 lam0n21 ) ( * 7 lam0n22 ) ( * 7 lam0n23 ) ( * 7 lam0n24 ) ( * 2 lam0n25 ) ( * 4 lam0n26 ) ( * 10 lam0n27 ) ( * 10 lam0n28 ) ( * 12 lam0n29 ) ( * 12 lam0n30 ) ( * Nl14CT1 lam0n32 ) ( - 1 ) ) 0 ) ( = ( + ( * ( - 1 ) lam0n0 ) ( * ( - 1 ) lam0n1 ) ( * ( - 1 ) lam0n2 ) ( * ( - 1 ) lam0n20 ) ( * ( - 1 ) lam0n21 ) ( * ( - 1 ) lam0n22 ) ( * ( - 1 ) lam0n26 ) ( * Nl14arg11 lam0n32 ) ) 0 ) ( = ( + ( * ( - 1 ) lam0n3 ) ( * ( - 1 ) lam0n23 ) ( * ( - 1 ) lam0n25 ) ( * ( - 1 ) lam0n29 ) ( * Nl14arg21 lam0n32 ) ) 0 ) ( = ( + ( * ( - 1 ) lam0n13 ) ( * Nl14arg31 lam0n32 ) ) 0 ) ( = ( + ( * ( - 1 ) lam0n0 ) ( * ( - 1 ) lam0n4 ) ( * ( - 1 ) lam0n14 ) ( * Nl14arg41 lam0n32 ) ) 0 ) ( = ( + ( * ( - 1 ) lam0n5 ) ( * ( - 1 ) lam0n15 ) ( * Nl14arg51 lam0n32 ) ) 0 ) ( = ( + ( * ( - 1 ) lam0n6 ) ( * ( - 1 ) lam0n16 ) ( * 1 lam0n31 ) ( * Nl14arg61 lam0n32 ) ) 0 ) ( = ( + ( * 1 lam0n7 ) ( * ( - 1 ) lam0n8 ) ( * ( - 1 ) lam0n17 ) ( * Nl14arg71 lam0n32 ) ) 0 ) ( = ( * Nl14arg81 lam0n32 ) 0 ) ( = ( + ( * ( - 1 ) lam0n7 ) ( * Nl14arg91 lam0n32 ) ) 0 ) ( = ( + ( * ( - 1 ) lam0n31 ) ( * Nl14arg101 lam0n32 ) ) 0 ) ( = ( + ( * 1 lam0n21 ) ( * Nl14arg111 lam0n32 ) ) 0 ) ( = ( + ( * 1 lam0n22 ) ( * 1 lam0n26 ) ( * Nl14arg121 lam0n32 ) ) 0 ) ( = ( + ( * 1 lam0n0 ) ( * 1 lam0n2 ) ( * ( - 1 ) lam0n9 ) ( * ( - 1 ) lam0n26 ) ( * Nl14arg131 lam0n32 ) ) 0 ) ( = ( + ( * 1 lam0n1 ) ( * Nl14arg141 lam0n32 ) ) 0 ) ( = ( + ( * ( - 1 ) lam0n10 ) ( * 1 lam0n23 ) ( * ( - 1 ) lam0n26 ) ( * Nl14arg151 lam0n32 ) ) 0 ) ( = ( + ( * ( - 1 ) lam0n11 ) ( * 1 lam0n13 ) ( * 1 lam0n25 ) ( * Nl14arg161 lam0n32 ) ) 0 ) ( = ( + ( * 1 lam0n3 ) ( * ( - 1 ) lam0n12 ) ( * Nl14arg171 lam0n32 ) ) 0 ) ( = ( * Nl14arg181 lam0n32 ) 0 ) ( = ( * Nl14arg191 lam0n32 ) 0 ) ( = ( * Nl14arg201 lam0n32 ) 0 ) ( = ( * Nl14arg211 lam0n32 ) 0 ) ( = ( * Nl14arg221 lam0n32 ) 0 ) ( = ( * Nl14arg231 lam0n32 ) 0 ) ( = ( * Nl14arg241 lam0n32 ) 0 ) ( = ( * Nl14arg251 lam0n32 ) 0 ) ( = ( * Nl14arg261 lam0n32 ) 0 ) ( = ( * Nl14arg271 lam0n32 ) 0 ) ( = ( * Nl14arg281 lam0n32 ) 0 ) ( = ( * Nl14arg291 lam0n32 ) 0 ) ( = ( * ( - 1 ) lam0n24 ) 0 ) ( = ( * ( - 1 ) lam0n30 ) 0 ) ( = ( * 1 lam0n17 ) 0 ) ( = ( * 1 lam0n16 ) 0 ) ( = ( * ( - 1 ) lam0n27 ) 0 ) ( = ( * ( - 1 ) lam0n28 ) 0 ) ( = ( * ( - 1 ) lam0n18 ) 0 ) ( = ( + ( * 1 lam0n14 ) ( * ( - 1 ) lam0n19 ) ) 0 ) ( = ( * 1 lam0n15 ) 0 ) ) ( and ( >= lam1n0 0 ) ( >= lam1n1 0 ) ( >= lam1n2 0 ) ( >= lam1n3 0 ) ( >= lam1n4 0 ) ( >= lam1n5 0 ) ( >= lam1n6 0 ) ( >= lam1n7 0 ) ( >= lam1n8 0 ) ( >= lam1n9 0 ) ( >= lam1n10 0 ) ( >= lam1n11 0 ) ( >= lam1n12 0 ) ( >= lam1n13 0 ) ( >= lam1n14 0 ) ( >= lam1n15 0 ) ( >= lam1n16 0 ) ( >= lam1n17 0 ) ( >= lam1n18 0 ) ( >= lam1n19 0 ) ( >= lam1n20 0 ) ( >= lam1n21 0 ) ( >= lam1n22 0 ) ( >= lam1n23 0 ) ( >= lam1n24 0 ) ( >= lam1n25 0 ) ( >= lam1n26 0 ) ( >= lam1n27 0 ) ( >= lam1n28 0 ) ( >= lam1n29 0 ) ( >= lam1n30 0 ) ( >= lam1n32 0 ) ( > ( + ( * 3 lam1n0 ) ( * 3 lam1n1 ) ( * 5 lam1n2 ) ( * 5 lam1n3 ) ( * 1 lam1n13 ) ( * 1 lam1n14 ) ( * 1 lam1n15 ) ( * 1 lam1n16 ) ( * 1 lam1n17 ) ( * 1 lam1n18 ) ( * 1 lam1n19 ) ( * 7 lam1n20 ) ( * 7 lam1n21 ) ( * 7 lam1n22 ) ( * 7 lam1n23 ) ( * 7 lam1n24 ) ( * 2 lam1n25 ) ( * 4 lam1n26 ) ( * 10 lam1n27 ) ( * 10 lam1n28 ) ( * 12 lam1n29 ) ( * 12 lam1n30 ) ( * Nl14CT1 lam1n32 ) ( - 1 ( + ( + ( + ( + ( + ( + ( + ( + ( + ( + ( + ( + ( + ( + ( + ( + ( + ( + ( + ( + ( + ( + Nl14CT1 ( * Nl14arg11 0 ) ) ( * Nl14arg21 0 ) ) ( * Nl14arg61 0 ) ) ( * Nl14arg71 0 ) ) ( * Nl14arg81 0 ) ) ( * Nl14arg91 1 ) ) ( * Nl14arg101 0 ) ) ( * Nl14arg111 0 ) ) ( * Nl14arg121 0 ) ) ( * Nl14arg161 1 ) ) ( * Nl14arg181 0 ) ) ( * Nl14arg191 0 ) ) ( * Nl14arg201 0 ) ) ( * Nl14arg211 0 ) ) ( * Nl14arg221 0 ) ) ( * Nl14arg231 0 ) ) ( * Nl14arg241 0 ) ) ( * Nl14arg251 0 ) ) ( * Nl14arg261 0 ) ) ( * Nl14arg271 0 ) ) ( * Nl14arg281 0 ) ) ( * Nl14arg291 0 ) ) ) ) 0 ) ( = ( + ( * ( - 1 ) lam1n0 ) ( * ( - 1 ) lam1n1 ) ( * ( - 1 ) lam1n2 ) ( * ( - 1 ) lam1n20 ) ( * ( - 1 ) lam1n21 ) ( * ( - 1 ) lam1n22 ) ( * ( - 1 ) lam1n26 ) ( * Nl14arg11 lam1n32 ) ) 0 ) ( = ( + ( * ( - 1 ) lam1n3 ) ( * ( - 1 ) lam1n23 ) ( * ( - 1 ) lam1n25 ) ( * ( - 1 ) lam1n29 ) ( * Nl14arg21 lam1n32 ) ) 0 ) ( = ( + ( * ( - 1 ) lam1n13 ) ( * Nl14arg31 lam1n32 ) ( - ( + 0 Nl14arg31 ) ) ) 0 ) ( = ( + ( * ( - 1 ) lam1n0 ) ( * ( - 1 ) lam1n4 ) ( * ( - 1 ) lam1n14 ) ( * Nl14arg41 lam1n32 ) ( - ( + 0 Nl14arg41 ) ) ) 0 ) ( = ( + ( * ( - 1 ) lam1n5 ) ( * ( - 1 ) lam1n15 ) ( * Nl14arg51 lam1n32 ) ( - ( + 0 Nl14arg51 ) ) ) 0 ) ( = ( + ( * ( - 1 ) lam1n6 ) ( * ( - 1 ) lam1n16 ) ( * 1 lam1n31 ) ( * Nl14arg61 lam1n32 ) ) 0 ) ( = ( + ( * 1 lam1n7 ) ( * ( - 1 ) lam1n8 ) ( * ( - 1 ) lam1n17 ) ( * Nl14arg71 lam1n32 ) ) 0 ) ( = ( * Nl14arg81 lam1n32 ) 0 ) ( = ( + ( * ( - 1 ) lam1n7 ) ( * Nl14arg91 lam1n32 ) ) 0 ) ( = ( + ( * ( - 1 ) lam1n31 ) ( * Nl14arg101 lam1n32 ) ) 0 ) ( = ( + ( * 1 lam1n21 ) ( * Nl14arg111 lam1n32 ) ) 0 ) ( = ( + ( * 1 lam1n22 ) ( * 1 lam1n26 ) ( * Nl14arg121 lam1n32 ) ) 0 ) ( = ( + ( * 1 lam1n0 ) ( * 1 lam1n2 ) ( * ( - 1 ) lam1n9 ) ( * ( - 1 ) lam1n26 ) ( * Nl14arg131 lam1n32 ) ( - ( + 0 Nl14arg131 ) ) ) 0 ) ( = ( + ( * 1 lam1n1 ) ( * Nl14arg141 lam1n32 ) ( - ( + 0 Nl14arg141 ) ) ) 0 ) ( = ( + ( * ( - 1 ) lam1n10 ) ( * 1 lam1n23 ) ( * ( - 1 ) lam1n26 ) ( * Nl14arg151 lam1n32 ) ( - ( + 0 Nl14arg151 ) ) ) 0 ) ( = ( + ( * ( - 1 ) lam1n11 ) ( * 1 lam1n13 ) ( * 1 lam1n25 ) ( * Nl14arg161 lam1n32 ) ( - ( + 0 ( * Nl14arg161 1 ) ) ) ) 0 ) ( = ( + ( * 1 lam1n3 ) ( * ( - 1 ) lam1n12 ) ( * Nl14arg171 lam1n32 ) ( - ( + 0 Nl14arg171 ) ) ) 0 ) ( = ( * Nl14arg181 lam1n32 ) 0 ) ( = ( * Nl14arg191 lam1n32 ) 0 ) ( = ( * Nl14arg201 lam1n32 ) 0 ) ( = ( * Nl14arg211 lam1n32 ) 0 ) ( = ( * Nl14arg221 lam1n32 ) 0 ) ( = ( * Nl14arg231 lam1n32 ) 0 ) ( = ( * Nl14arg241 lam1n32 ) 0 ) ( = ( * Nl14arg251 lam1n32 ) 0 ) ( = ( * Nl14arg261 lam1n32 ) 0 ) ( = ( * Nl14arg271 lam1n32 ) 0 ) ( = ( * Nl14arg281 lam1n32 ) 0 ) ( = ( * Nl14arg291 lam1n32 ) 0 ) ( = ( + ( * ( - 1 ) lam1n24 ) ( - ( + 0 ( * Nl14arg11 1 ) ) ) ) 0 ) ( = ( + ( * ( - 1 ) lam1n30 ) ( - ( + 0 ( * Nl14arg21 1 ) ) ) ) 0 ) ( = ( - ( + 0 ( * Nl14arg61 1 ) ) ) 0 ) ( = ( + ( * 1 lam1n17 ) ( - ( + 0 ( * Nl14arg81 1 ) ) ) ) 0 ) ( = ( + ( * 1 lam1n16 ) ( - ( + 0 ( * Nl14arg101 1 ) ) ) ) 0 ) ( = ( - ( + 0 ( * Nl14arg111 1 ) ) ) 0 ) ( = ( - ( + 0 ( * Nl14arg121 1 ) ) ) 0 ) ( = ( - ( + 0 ( * Nl14arg181 1 ) ) ) 0 ) ( = ( - ( + 0 ( * Nl14arg191 1 ) ) ) 0 ) ( = ( - ( + 0 ( * Nl14arg201 1 ) ) ) 0 ) ( = ( - ( + 0 ( * Nl14arg211 1 ) ) ) 0 ) ( = ( - ( + 0 ( * Nl14arg221 1 ) ) ) 0 ) ( = ( - ( + 0 ( * Nl14arg231 1 ) ) ) 0 ) ( = ( - ( + 0 ( * Nl14arg241 1 ) ) ) 0 ) ( = ( - ( + 0 ( * Nl14arg251 1 ) ) ) 0 ) ( = ( - ( + 0 ( * Nl14arg261 1 ) ) ) 0 ) ( = ( - ( + 0 ( * Nl14arg271 1 ) ) ) 0 ) ( = ( - ( + 0 ( * Nl14arg281 1 ) ) ) 0 ) ( = ( - ( + 0 ( * Nl14arg291 1 ) ) ) 0 ) ( = ( * ( - 1 ) lam1n27 ) 0 ) ( = ( * ( - 1 ) lam1n28 ) 0 ) ( = ( * ( - 1 ) lam1n18 ) 0 ) ( = ( + ( * 1 lam1n14 ) ( * ( - 1 ) lam1n19 ) ) 0 ) ( = ( * 1 lam1n15 ) 0 ) ) ))
(assert ( and ( <= ( + 3 ( * ( - 1 ) undef59 ) undef66 ) 0 ) ( <= ( + 3 undef66 ( * ( - 1 ) undef148 ) ) 0 ) ( <= ( + 3 ( * ( - 1 ) undef147 ) undef157 ) 0 ) ( not ( <= ( + ( - 2 ) undef151 ( * ( - 1 ) undef156 ) undef459 ) 0 ) ) ( <= ( + 5 ( * ( - 1 ) undef59 ) undef65 ) 0 ) ( <= ( + 5 undef65 ( * ( - 1 ) undef148 ) ) 0 ) ( <= ( + 5 ( * ( - 1 ) undef147 ) undef156 ) 0 ) ( <= ( * ( - 1 ) undef60 ) 0 ) ( <= ( * ( - 1 ) undef61 ) 0 ) ( <= ( * ( - 1 ) undef65 ) 0 ) ( <= ( + ( * ( - 1 ) undef65 ) undef461 ) 0 ) ( not ( <= ( + 1 undef66 ) 0 ) ) ( <= ( * ( - 1 ) undef88 ) 0 ) ( <= ( * ( - 1 ) undef151 ) 0 ) ( <= ( * ( - 1 ) undef152 ) 0 ) ( <= ( * ( - 1 ) undef156 ) 0 ) ( <= ( * ( - 1 ) undef176 ) 0 ) ( <= ( * ( - 1 ) undef177 ) 0 ) ( <= ( * ( - 1 ) undef461 ) 0 ) ( <= ( * ( - 1 ) undef488 ) 0 ) ( <= ( + 1 ( * ( - 1 ) undef60 ) undef464 ) 0 ) ( <= ( + 1 ( * ( - 1 ) undef61 ) undef490 ) 0 ) ( <= ( + 1 ( * ( - 1 ) undef151 ) undef1362 ) 0 ) ( <= ( + 1 ( * ( - 1 ) undef152 ) undef1363 ) 0 ) ( <= ( + 1 undef176 ( * ( - 1 ) undef2009 ) ) 0 ) ( <= ( + 1 undef461 ( * ( - 1 ) undef489 ) ) 0 ) ( <= ( + 1 ( * ( - 1 ) undef464 ) ) 0 ) ( <= ( + 1 undef488 ( * ( - 1 ) undef2009 ) ) 0 ) ( <= ( + 1 ( * ( - 1 ) undef1361 ) ) 0 ) ( <= ( + 1 ( * ( - 1 ) undef1362 ) ) 0 ) ( <= ( + 1 ( * ( - 1 ) undef2008 ) ) 0 ) ( <= ( + 1 ( * ( - 1 ) undef2009 ) ) 0 ) ( <= ( + 7 ( * ( - 1 ) undef59 ) ) 0 ) ( <= ( + 7 ( * ( - 1 ) undef59 ) undef63 ) 0 ) ( <= ( + 7 ( * ( - 1 ) undef59 ) undef64 ) 0 ) ( <= ( + 7 ( * ( - 1 ) undef147 ) ) 0 ) ( <= ( + 7 ( * ( - 1 ) undef147 ) undef154 ) 0 ) ( <= ( + 7 ( * ( - 1 ) undef147 ) undef155 ) 0 ) ( <= ( + 7 ( * ( - 1 ) undef148 ) ) 0 ) ( <= ( + 7 ( * ( - 1 ) undef148 ) undef158 ) 0 ) ( <= ( + 7 ( * ( - 1 ) undef148 ) undef159 ) 0 ) ( <= ( + 7 ( * ( - 1 ) undef459 ) ) 0 ) ( not ( <= ( + ( - 3 ) undef65 undef156 undef459 ( * ( - 1 ) undef470 ) ) 0 ) ) ( <= ( + 10 ( * ( - 1 ) undef460 ) ) 0 ) ( <= ( + 10 ( * ( - 1 ) undef1332 ) ) 0 ) ( <= ( + 10 ( * ( - 1 ) undef1333 ) ) 0 ) ( <= ( + ( + ( + ( + ( + ( + ( + ( + ( + ( + ( + ( + ( + ( + ( + ( + ( + ( + ( + ( + ( + ( + ( + ( + ( + ( + ( + ( + ( + ( + Nl14CT1 ( * Nl14arg11 0 ) ) ( * Nl14arg21 0 ) ) ( * Nl14arg31 0 ) ) ( * Nl14arg41 0 ) ) ( * Nl14arg51 0 ) ) ( * Nl14arg61 0 ) ) ( * Nl14arg71 0 ) ) ( * Nl14arg81 0 ) ) ( * Nl14arg91 0 ) ) ( * Nl14arg101 0 ) ) ( * Nl14arg111 0 ) ) ( * Nl14arg121 0 ) ) ( * Nl14arg131 0 ) ) ( * Nl14arg141 0 ) ) ( * Nl14arg151 0 ) ) ( * Nl14arg161 0 ) ) ( * Nl14arg171 0 ) ) ( * Nl14arg181 0 ) ) ( * Nl14arg191 0 ) ) ( * Nl14arg201 0 ) ) ( * Nl14arg211 0 ) ) ( * Nl14arg221 0 ) ) ( * Nl14arg231 0 ) ) ( * Nl14arg241 0 ) ) ( * Nl14arg251 0 ) ) ( * Nl14arg261 0 ) ) ( * Nl14arg271 0 ) ) ( * Nl14arg281 0 ) ) ( * Nl14arg291 0 ) ) ( * ( + 0 ( * Nl14arg151 1 ) ) undef65 ) ( * ( + 0 ( * Nl14arg171 1 ) ) undef66 ) ( * ( + 0 ( * Nl14arg41 1 ) ) undef151 ) ( * ( + 0 ( * Nl14arg51 1 ) ) undef152 ) ( * ( + 0 ( * Nl14arg131 1 ) ) undef156 ) ( * ( + 0 ( * Nl14arg141 1 ) ) undef157 ) ( * ( + 0 ( * Nl14arg11 1 ) ) undef459 ) ( * ( + 0 ( * Nl14arg21 1 ) ) undef460 ) ( * ( + 0 ( * Nl14arg31 1 ) ) undef461 ) ( * ( + ( + 0 ( * Nl14arg61 1 ) ) ( * Nl14arg101 1 ) ) undef464 ) ( * ( + 0 ( * Nl14arg111 1 ) ) undef469 ) ( * ( + 0 ( * Nl14arg121 1 ) ) undef470 ) ( * ( + 0 ( * Nl14arg181 1 ) ) undef476 ) ( * ( + 0 ( * Nl14arg191 1 ) ) undef477 ) ( * ( + 0 ( * Nl14arg201 1 ) ) undef478 ) ( * ( + 0 ( * Nl14arg211 1 ) ) undef479 ) ( * ( + 0 ( * Nl14arg221 1 ) ) undef480 ) ( * ( + 0 ( * Nl14arg231 1 ) ) undef481 ) ( * ( + 0 ( * Nl14arg241 1 ) ) undef482 ) ( * ( + 0 ( * Nl14arg251 1 ) ) undef483 ) ( * ( + 0 ( * Nl14arg261 1 ) ) undef484 ) ( * ( + 0 ( * Nl14arg271 1 ) ) undef485 ) ( * ( + 0 ( * Nl14arg281 1 ) ) undef486 ) ( * ( + 0 ( * Nl14arg291 1 ) ) undef487 ) ) 0 ) ))
(assert ( or ( or ( and ( >= lam3n0 0 ) ( >= lam3n1 0 ) ( >= lam3n2 0 ) ( >= lam3n3 0 ) ( >= lam3n4 0 ) ( >= lam3n5 0 ) ( >= lam3n6 0 ) ( >= lam3n7 0 ) ( >= lam3n8 0 ) ( >= lam3n9 0 ) ( >= lam3n10 0 ) ( >= lam3n11 0 ) ( >= lam3n12 0 ) ( >= lam3n13 0 ) ( >= lam3n14 0 ) ( >= lam3n15 0 ) ( >= lam3n16 0 ) ( >= lam3n17 0 ) ( >= lam3n18 0 ) ( >= lam3n19 0 ) ( >= lam3n20 0 ) ( >= lam3n21 0 ) ( >= lam3n22 0 ) ( > ( + ( * 3 lam3n0 ) ( * 5 lam3n1 ) ( * 5 lam3n2 ) ( * 5 lam3n3 ) ( * 1 lam3n10 ) ( * 1 lam3n11 ) ( * 1 lam3n12 ) ( * 1 lam3n13 ) ( * 7 lam3n14 ) ( * 7 lam3n15 ) ( * 7 lam3n16 ) ( * 7 lam3n17 ) ( * 2 lam3n18 ) ( * 10 lam3n19 ) ( * 10 lam3n20 ) ( * 10 lam3n21 ) ( * Nl14CT1 lam3n22 ) ( - 1 ) ) 0 ) ( = ( + ( * ( - 1 ) lam3n0 ) ( * ( - 1 ) lam3n1 ) ( * ( - 1 ) lam3n14 ) ( * ( - 1 ) lam3n15 ) ( * ( - 1 ) lam3n16 ) ( * Nl14arg11 lam3n22 ) ) 0 ) ( = ( + ( * ( - 1 ) lam3n2 ) ( * ( - 1 ) lam3n4 ) ( * ( - 1 ) lam3n17 ) ( * ( - 1 ) lam3n18 ) ( * ( - 1 ) lam3n19 ) ( * Nl14arg21 lam3n22 ) ) 0 ) ( = ( + ( * 1 lam3n5 ) ( * Nl14arg31 lam3n22 ) ) 0 ) ( = ( + ( * ( - 1 ) lam3n6 ) ( * ( - 1 ) lam3n10 ) ( * Nl14arg41 lam3n22 ) ) 0 ) ( = ( + ( * ( - 1 ) lam3n7 ) ( * ( - 1 ) lam3n11 ) ( * Nl14arg51 lam3n22 ) ) 0 ) ( = ( * Nl14arg61 lam3n22 ) 0 ) ( = ( * Nl14arg71 lam3n22 ) 0 ) ( = ( * Nl14arg81 lam3n22 ) 0 ) ( = ( * Nl14arg91 lam3n22 ) 0 ) ( = ( * Nl14arg101 lam3n22 ) 0 ) ( = ( + ( * 1 lam3n15 ) ( * Nl14arg111 lam3n22 ) ) 0 ) ( = ( + ( * 1 lam3n16 ) ( * Nl14arg121 lam3n22 ) ) 0 ) ( = ( + ( * 1 lam3n1 ) ( * 1 lam3n3 ) ( * ( - 1 ) lam3n8 ) ( * Nl14arg131 lam3n22 ) ) 0 ) ( = ( + ( * 1 lam3n0 ) ( * Nl14arg141 lam3n22 ) ) 0 ) ( = ( + ( * ( - 1 ) lam3n9 ) ( * 1 lam3n17 ) ( * Nl14arg151 lam3n22 ) ) 0 ) ( = ( + ( * 1 lam3n3 ) ( * ( - 1 ) lam3n5 ) ( * 1 lam3n18 ) ( * Nl14arg161 lam3n22 ) ) 0 ) ( = ( + ( * 1 lam3n2 ) ( * Nl14arg171 lam3n22 ) ) 0 ) ( = ( * Nl14arg181 lam3n22 ) 0 ) ( = ( * Nl14arg191 lam3n22 ) 0 ) ( = ( * Nl14arg201 lam3n22 ) 0 ) ( = ( * Nl14arg211 lam3n22 ) 0 ) ( = ( * Nl14arg221 lam3n22 ) 0 ) ( = ( * Nl14arg231 lam3n22 ) 0 ) ( = ( * Nl14arg241 lam3n22 ) 0 ) ( = ( * Nl14arg251 lam3n22 ) 0 ) ( = ( * Nl14arg261 lam3n22 ) 0 ) ( = ( * Nl14arg271 lam3n22 ) 0 ) ( = ( * Nl14arg281 lam3n22 ) 0 ) ( = ( * Nl14arg291 lam3n22 ) 0 ) ( = ( + ( * ( - 1 ) lam3n3 ) ( * 1 lam3n4 ) ( * ( - 1 ) lam3n20 ) ) 0 ) ( = ( + ( * ( - 1 ) lam3n3 ) ( * ( - 1 ) lam3n21 ) ) 0 ) ( = ( * ( - 1 ) lam3n12 ) 0 ) ( = ( + ( * 1 lam3n10 ) ( * ( - 1 ) lam3n13 ) ) 0 ) ( = ( * 1 lam3n11 ) 0 ) ) ( and ( >= lam4n0 0 ) ( >= lam4n1 0 ) ( >= lam4n2 0 ) ( >= lam4n3 0 ) ( >= lam4n4 0 ) ( >= lam4n5 0 ) ( >= lam4n6 0 ) ( >= lam4n7 0 ) ( >= lam4n8 0 ) ( >= lam4n9 0 ) ( >= lam4n10 0 ) ( >= lam4n11 0 ) ( >= lam4n12 0 ) ( >= lam4n13 0 ) ( >= lam4n14 0 ) ( >= lam4n15 0 ) ( >= lam4n16 0 ) ( >= lam4n17 0 ) ( >= lam4n18 0 ) ( >= lam4n19 0 ) ( >= lam4n20 0 ) ( >= lam4n21 0 ) ( >= lam4n22 0 ) ( > ( + ( * 3 lam4n0 ) ( * 5 lam4n1 ) ( * 5 lam4n2 ) ( * 5 lam4n3 ) ( * 1 lam4n10 ) ( * 1 lam4n11 ) ( * 1 lam4n12 ) ( * 1 lam4n13 ) ( * 7 lam4n14 ) ( * 7 lam4n15 ) ( * 7 lam4n16 ) ( * 7 lam4n17 ) ( * 2 lam4n18 ) ( * 10 lam4n19 ) ( * 10 lam4n20 ) ( * 10 lam4n21 ) ( * Nl14CT1 lam4n22 ) ) 0 ) ( = ( + ( * ( - 1 ) lam4n0 ) ( * ( - 1 ) lam4n1 ) ( * ( - 1 ) lam4n14 ) ( * ( - 1 ) lam4n15 ) ( * ( - 1 ) lam4n16 ) ( * Nl14arg11 lam4n22 ) ) 0 ) ( = ( + ( * ( - 1 ) lam4n2 ) ( * ( - 1 ) lam4n4 ) ( * ( - 1 ) lam4n17 ) ( * ( - 1 ) lam4n18 ) ( * ( - 1 ) lam4n19 ) ( * Nl14arg21 lam4n22 ) ) 0 ) ( = ( + ( * 1 lam4n5 ) ( * Nl14arg31 lam4n22 ) ) 0 ) ( = ( + ( * ( - 1 ) lam4n6 ) ( * ( - 1 ) lam4n10 ) ( * Nl14arg41 lam4n22 ) ) 0 ) ( = ( + ( * ( - 1 ) lam4n7 ) ( * ( - 1 ) lam4n11 ) ( * Nl14arg51 lam4n22 ) ) 0 ) ( = ( * Nl14arg61 lam4n22 ) 0 ) ( = ( * Nl14arg71 lam4n22 ) 0 ) ( = ( * Nl14arg81 lam4n22 ) 0 ) ( = ( * Nl14arg91 lam4n22 ) 0 ) ( = ( * Nl14arg101 lam4n22 ) 0 ) ( = ( + ( * 1 lam4n15 ) ( * Nl14arg111 lam4n22 ) ) 0 ) ( = ( + ( * 1 lam4n16 ) ( * Nl14arg121 lam4n22 ) ) 0 ) ( = ( + ( * 1 lam4n1 ) ( * 1 lam4n3 ) ( * ( - 1 ) lam4n8 ) ( * Nl14arg131 lam4n22 ) ) 0 ) ( = ( + ( * 1 lam4n0 ) ( * Nl14arg141 lam4n22 ) ) 0 ) ( = ( + ( * ( - 1 ) lam4n9 ) ( * 1 lam4n17 ) ( * Nl14arg151 lam4n22 ) ) 0 ) ( = ( + ( * 1 lam4n3 ) ( * ( - 1 ) lam4n5 ) ( * 1 lam4n18 ) ( * Nl14arg161 lam4n22 ) ) 0 ) ( = ( + ( * 1 lam4n2 ) ( * Nl14arg171 lam4n22 ) ( - 1 ) ) 0 ) ( = ( * Nl14arg181 lam4n22 ) 0 ) ( = ( * Nl14arg191 lam4n22 ) 0 ) ( = ( * Nl14arg201 lam4n22 ) 0 ) ( = ( * Nl14arg211 lam4n22 ) 0 ) ( = ( * Nl14arg221 lam4n22 ) 0 ) ( = ( * Nl14arg231 lam4n22 ) 0 ) ( = ( * Nl14arg241 lam4n22 ) 0 ) ( = ( * Nl14arg251 lam4n22 ) 0 ) ( = ( * Nl14arg261 lam4n22 ) 0 ) ( = ( * Nl14arg271 lam4n22 ) 0 ) ( = ( * Nl14arg281 lam4n22 ) 0 ) ( = ( * Nl14arg291 lam4n22 ) 0 ) ( = ( + ( * ( - 1 ) lam4n3 ) ( * 1 lam4n4 ) ( * ( - 1 ) lam4n20 ) ) 0 ) ( = ( + ( * ( - 1 ) lam4n3 ) ( * ( - 1 ) lam4n21 ) ) 0 ) ( = ( * ( - 1 ) lam4n12 ) 0 ) ( = ( + ( * 1 lam4n10 ) ( * ( - 1 ) lam4n13 ) ) 0 ) ( = ( * 1 lam4n11 ) 0 ) ) ) ( and ( and ( >= lam2n0 0 ) ( >= lam2n1 0 ) ( >= lam2n2 0 ) ( >= lam2n3 0 ) ( >= lam2n4 0 ) ( >= lam2n5 0 ) ( >= lam2n6 0 ) ( >= lam2n7 0 ) ( >= lam2n8 0 ) ( >= lam2n9 0 ) ( >= lam2n10 0 ) ( >= lam2n11 0 ) ( >= lam2n12 0 ) ( >= lam2n13 0 ) ( >= lam2n14 0 ) ( >= lam2n15 0 ) ( >= lam2n16 0 ) ( >= lam2n17 0 ) ( >= lam2n18 0 ) ( >= lam2n19 0 ) ( >= lam2n20 0 ) ( >= lam2n21 0 ) ( >= lam2n22 0 ) ( >= lam2n23 0 ) ( >= lam2n24 0 ) ( >= lam2n25 0 ) ( >= lam2n26 0 ) ( >= lam2n27 0 ) ( >= lam2n28 0 ) ( >= lam2n29 0 ) ( >= lam2n30 0 ) ( >= lam2n31 0 ) ( >= lam2n32 0 ) ( >= lam2n33 0 ) ( >= lam2n34 0 ) ( >= lam2n35 0 ) ( >= lam2n36 0 ) ( >= lam2n37 0 ) ( >= lam2n38 0 ) ( >= lam2n39 0 ) ( >= lam2n40 0 ) ( >= lam2n41 0 ) ( >= lam2n42 0 ) ( >= lam2n43 0 ) ( >= lam2n44 0 ) ( >= lam2n45 0 ) ( > ( + ( * 3 lam2n0 ) ( * 3 lam2n1 ) ( * 3 lam2n2 ) ( * 3 lam2n3 ) ( * 5 lam2n4 ) ( * 5 lam2n5 ) ( * 5 lam2n6 ) ( * 1 lam2n20 ) ( * 1 lam2n21 ) ( * 1 lam2n22 ) ( * 1 lam2n23 ) ( * 1 lam2n24 ) ( * 1 lam2n25 ) ( * 1 lam2n26 ) ( * 1 lam2n27 ) ( * 1 lam2n28 ) ( * 1 lam2n29 ) ( * 1 lam2n30 ) ( * 1 lam2n31 ) ( * 7 lam2n32 ) ( * 7 lam2n33 ) ( * 7 lam2n34 ) ( * 7 lam2n35 ) ( * 7 lam2n36 ) ( * 7 lam2n37 ) ( * 7 lam2n38 ) ( * 7 lam2n39 ) ( * 7 lam2n40 ) ( * 7 lam2n41 ) ( * 4 lam2n42 ) ( * 10 lam2n43 ) ( * 10 lam2n44 ) ( * 10 lam2n45 ) ( - 1 ( + ( + ( + ( + ( + ( + ( + ( + ( + ( + ( + ( + ( + ( + ( + ( + ( + ( + ( + ( + ( + ( + ( + ( + ( + ( + ( + ( + ( + Nl14CT1 ( * Nl14arg11 0 ) ) ( * Nl14arg21 0 ) ) ( * Nl14arg31 0 ) ) ( * Nl14arg41 0 ) ) ( * Nl14arg51 0 ) ) ( * Nl14arg61 0 ) ) ( * Nl14arg71 0 ) ) ( * Nl14arg81 0 ) ) ( * Nl14arg91 0 ) ) ( * Nl14arg101 0 ) ) ( * Nl14arg111 0 ) ) ( * Nl14arg121 0 ) ) ( * Nl14arg131 0 ) ) ( * Nl14arg141 0 ) ) ( * Nl14arg151 0 ) ) ( * Nl14arg161 0 ) ) ( * Nl14arg171 0 ) ) ( * Nl14arg181 0 ) ) ( * Nl14arg191 0 ) ) ( * Nl14arg201 0 ) ) ( * Nl14arg211 0 ) ) ( * Nl14arg221 0 ) ) ( * Nl14arg231 0 ) ) ( * Nl14arg241 0 ) ) ( * Nl14arg251 0 ) ) ( * Nl14arg261 0 ) ) ( * Nl14arg271 0 ) ) ( * Nl14arg281 0 ) ) ( * Nl14arg291 0 ) ) ) ) 0 ) ( = ( + ( * ( - 1 ) lam2n0 ) ( * ( - 1 ) lam2n4 ) ( * ( - 1 ) lam2n32 ) ( * ( - 1 ) lam2n33 ) ( * ( - 1 ) lam2n34 ) ) 0 ) ( = ( + ( * ( - 1 ) lam2n7 ) ( * ( - 1 ) lam2n20 ) ) 0 ) ( = ( + ( * ( - 1 ) lam2n8 ) ( * ( - 1 ) lam2n21 ) ) 0 ) ( = ( * 1 lam2n33 ) 0 ) ( = ( * 1 lam2n34 ) 0 ) ( = ( + ( * 1 lam2n4 ) ( * 1 lam2n5 ) ( * ( - 1 ) lam2n9 ) ( * ( - 1 ) lam2n10 ) ( * ( - 1 ) lam2n42 ) ( - ( + 0 ( * Nl14arg151 1 ) ) ) ) 0 ) ( = ( + ( * 1 lam2n0 ) ( * 1 lam2n1 ) ( * ( - 1 ) lam2n11 ) ( - ( + 0 ( * Nl14arg171 1 ) ) ) ) 0 ) ( = ( * ( - 1 ) lam2n12 ) 0 ) ( = ( + ( * ( - 1 ) lam2n2 ) ( * ( - 1 ) lam2n6 ) ( * ( - 1 ) lam2n35 ) ( * ( - 1 ) lam2n36 ) ( * ( - 1 ) lam2n37 ) ) 0 ) ( = ( + ( * ( - 1 ) lam2n1 ) ( * ( - 1 ) lam2n5 ) ( * ( - 1 ) lam2n38 ) ( * ( - 1 ) lam2n39 ) ( * ( - 1 ) lam2n40 ) ) 0 ) ( = ( + ( * ( - 1 ) lam2n3 ) ( * ( - 1 ) lam2n13 ) ( * ( - 1 ) lam2n22 ) ( - ( + 0 ( * Nl14arg41 1 ) ) ) ) 0 ) ( = ( + ( * ( - 1 ) lam2n14 ) ( * ( - 1 ) lam2n23 ) ( - ( + 0 ( * Nl14arg51 1 ) ) ) ) 0 ) ( = ( * 1 lam2n36 ) 0 ) ( = ( * 1 lam2n37 ) 0 ) ( = ( + ( * 1 lam2n3 ) ( * 1 lam2n6 ) ( * ( - 1 ) lam2n15 ) ( * ( - 1 ) lam2n42 ) ( - ( + 0 ( * Nl14arg131 1 ) ) ) ) 0 ) ( = ( + ( * 1 lam2n2 ) ( - ( + 0 ( * Nl14arg141 1 ) ) ) ) 0 ) ( = ( * 1 lam2n39 ) 0 ) ( = ( * 1 lam2n40 ) 0 ) ( = ( + ( * ( - 1 ) lam2n16 ) ( * 1 lam2n24 ) ) 0 ) ( = ( * ( - 1 ) lam2n17 ) 0 ) ( = ( + ( * ( - 1 ) lam2n3 ) ( * ( - 1 ) lam2n41 ) ( * ( - 1 ) lam2n42 ) ( - ( + 0 ( * Nl14arg11 1 ) ) ) ) 0 ) ( = ( + ( * ( - 1 ) lam2n43 ) ( - ( + 0 ( * Nl14arg21 1 ) ) ) ) 0 ) ( = ( + ( * 1 lam2n10 ) ( * ( - 1 ) lam2n18 ) ( * 1 lam2n25 ) ( - ( + 0 ( * Nl14arg31 1 ) ) ) ) 0 ) ( = ( + ( * 1 lam2n20 ) ( * ( - 1 ) lam2n26 ) ( - ( + ( + 0 ( * Nl14arg61 1 ) ) ( * Nl14arg101 1 ) ) ) ) 0 ) ( = ( - ( + 0 ( * Nl14arg111 1 ) ) ) 0 ) ( = ( + ( * 1 lam2n42 ) ( - ( + 0 ( * Nl14arg121 1 ) ) ) ) 0 ) ( = ( - ( + 0 ( * Nl14arg181 1 ) ) ) 0 ) ( = ( - ( + 0 ( * Nl14arg191 1 ) ) ) 0 ) ( = ( - ( + 0 ( * Nl14arg201 1 ) ) ) 0 ) ( = ( - ( + 0 ( * Nl14arg211 1 ) ) ) 0 ) ( = ( - ( + 0 ( * Nl14arg221 1 ) ) ) 0 ) ( = ( - ( + 0 ( * Nl14arg231 1 ) ) ) 0 ) ( = ( - ( + 0 ( * Nl14arg241 1 ) ) ) 0 ) ( = ( - ( + 0 ( * Nl14arg251 1 ) ) ) 0 ) ( = ( - ( + 0 ( * Nl14arg261 1 ) ) ) 0 ) ( = ( - ( + 0 ( * Nl14arg271 1 ) ) ) 0 ) ( = ( - ( + 0 ( * Nl14arg281 1 ) ) ) 0 ) ( = ( - ( + 0 ( * Nl14arg291 1 ) ) ) 0 ) ( = ( + ( * ( - 1 ) lam2n19 ) ( * 1 lam2n27 ) ) 0 ) ( = ( * ( - 1 ) lam2n25 ) 0 ) ( = ( * 1 lam2n21 ) 0 ) ( = ( * ( - 1 ) lam2n44 ) 0 ) ( = ( * ( - 1 ) lam2n45 ) 0 ) ( = ( * ( - 1 ) lam2n28 ) 0 ) ( = ( + ( * 1 lam2n22 ) ( * ( - 1 ) lam2n29 ) ) 0 ) ( = ( * 1 lam2n23 ) 0 ) ( = ( * ( - 1 ) lam2n30 ) 0 ) ( = ( + ( * ( - 1 ) lam2n24 ) ( * ( - 1 ) lam2n27 ) ( * ( - 1 ) lam2n31 ) ) 0 ) ) ( and ( >= lam0n0 0 ) ( >= lam0n1 0 ) ( >= lam0n2 0 ) ( >= lam0n3 0 ) ( >= lam0n4 0 ) ( >= lam0n5 0 ) ( >= lam0n6 0 ) ( >= lam0n7 0 ) ( >= lam0n8 0 ) ( >= lam0n9 0 ) ( >= lam0n10 0 ) ( >= lam0n11 0 ) ( >= lam0n12 0 ) ( >= lam0n13 0 ) ( >= lam0n14 0 ) ( >= lam0n15 0 ) ( >= lam0n16 0 ) ( >= lam0n17 0 ) ( >= lam0n18 0 ) ( >= lam0n19 0 ) ( >= lam0n20 0 ) ( >= lam0n21 0 ) ( >= lam0n22 0 ) ( >= lam0n23 0 ) ( >= lam0n24 0 ) ( >= lam0n25 0 ) ( >= lam0n26 0 ) ( >= lam0n27 0 ) ( >= lam0n28 0 ) ( >= lam0n29 0 ) ( >= lam0n30 0 ) ( >= lam0n32 0 ) ( > ( + ( * 3 lam0n0 ) ( * 3 lam0n1 ) ( * 5 lam0n2 ) ( * 5 lam0n3 ) ( * 1 lam0n13 ) ( * 1 lam0n14 ) ( * 1 lam0n15 ) ( * 1 lam0n16 ) ( * 1 lam0n17 ) ( * 1 lam0n18 ) ( * 1 lam0n19 ) ( * 7 lam0n20 ) ( * 7 lam0n21 ) ( * 7 lam0n22 ) ( * 7 lam0n23 ) ( * 7 lam0n24 ) ( * 2 lam0n25 ) ( * 4 lam0n26 ) ( * 10 lam0n27 ) ( * 10 lam0n28 ) ( * 12 lam0n29 ) ( * 12 lam0n30 ) ( * Nl14CT1 lam0n32 ) ( - 1 ) ) 0 ) ( = ( + ( * ( - 1 ) lam0n0 ) ( * ( - 1 ) lam0n1 ) ( * ( - 1 ) lam0n2 ) ( * ( - 1 ) lam0n20 ) ( * ( - 1 ) lam0n21 ) ( * ( - 1 ) lam0n22 ) ( * ( - 1 ) lam0n26 ) ( * Nl14arg11 lam0n32 ) ) 0 ) ( = ( + ( * ( - 1 ) lam0n3 ) ( * ( - 1 ) lam0n23 ) ( * ( - 1 ) lam0n25 ) ( * ( - 1 ) lam0n29 ) ( * Nl14arg21 lam0n32 ) ) 0 ) ( = ( + ( * ( - 1 ) lam0n13 ) ( * Nl14arg31 lam0n32 ) ) 0 ) ( = ( + ( * ( - 1 ) lam0n0 ) ( * ( - 1 ) lam0n4 ) ( * ( - 1 ) lam0n14 ) ( * Nl14arg41 lam0n32 ) ) 0 ) ( = ( + ( * ( - 1 ) lam0n5 ) ( * ( - 1 ) lam0n15 ) ( * Nl14arg51 lam0n32 ) ) 0 ) ( = ( + ( * ( - 1 ) lam0n6 ) ( * ( - 1 ) lam0n16 ) ( * 1 lam0n31 ) ( * Nl14arg61 lam0n32 ) ) 0 ) ( = ( + ( * 1 lam0n7 ) ( * ( - 1 ) lam0n8 ) ( * ( - 1 ) lam0n17 ) ( * Nl14arg71 lam0n32 ) ) 0 ) ( = ( * Nl14arg81 lam0n32 ) 0 ) ( = ( + ( * ( - 1 ) lam0n7 ) ( * Nl14arg91 lam0n32 ) ) 0 ) ( = ( + ( * ( - 1 ) lam0n31 ) ( * Nl14arg101 lam0n32 ) ) 0 ) ( = ( + ( * 1 lam0n21 ) ( * Nl14arg111 lam0n32 ) ) 0 ) ( = ( + ( * 1 lam0n22 ) ( * 1 lam0n26 ) ( * Nl14arg121 lam0n32 ) ) 0 ) ( = ( + ( * 1 lam0n0 ) ( * 1 lam0n2 ) ( * ( - 1 ) lam0n9 ) ( * ( - 1 ) lam0n26 ) ( * Nl14arg131 lam0n32 ) ) 0 ) ( = ( + ( * 1 lam0n1 ) ( * Nl14arg141 lam0n32 ) ) 0 ) ( = ( + ( * ( - 1 ) lam0n10 ) ( * 1 lam0n23 ) ( * ( - 1 ) lam0n26 ) ( * Nl14arg151 lam0n32 ) ) 0 ) ( = ( + ( * ( - 1 ) lam0n11 ) ( * 1 lam0n13 ) ( * 1 lam0n25 ) ( * Nl14arg161 lam0n32 ) ) 0 ) ( = ( + ( * 1 lam0n3 ) ( * ( - 1 ) lam0n12 ) ( * Nl14arg171 lam0n32 ) ) 0 ) ( = ( * Nl14arg181 lam0n32 ) 0 ) ( = ( * Nl14arg191 lam0n32 ) 0 ) ( = ( * Nl14arg201 lam0n32 ) 0 ) ( = ( * Nl14arg211 lam0n32 ) 0 ) ( = ( * Nl14arg221 lam0n32 ) 0 ) ( = ( * Nl14arg231 lam0n32 ) 0 ) ( = ( * Nl14arg241 lam0n32 ) 0 ) ( = ( * Nl14arg251 lam0n32 ) 0 ) ( = ( * Nl14arg261 lam0n32 ) 0 ) ( = ( * Nl14arg271 lam0n32 ) 0 ) ( = ( * Nl14arg281 lam0n32 ) 0 ) ( = ( * Nl14arg291 lam0n32 ) 0 ) ( = ( * ( - 1 ) lam0n24 ) 0 ) ( = ( * ( - 1 ) lam0n30 ) 0 ) ( = ( * 1 lam0n17 ) 0 ) ( = ( * 1 lam0n16 ) 0 ) ( = ( * ( - 1 ) lam0n27 ) 0 ) ( = ( * ( - 1 ) lam0n28 ) 0 ) ( = ( * ( - 1 ) lam0n18 ) 0 ) ( = ( + ( * 1 lam0n14 ) ( * ( - 1 ) lam0n19 ) ) 0 ) ( = ( * 1 lam0n15 ) 0 ) ) ) ))
(check-sat)
(exit)
